p tdp 20 133
1 2
1 4
1 6
1 7
1 9
1 10
1 11
1 12
1 13
1 14
1 16
1 17
1 18
1 19
1 20
2 4
2 5
2 6
2 8
2 9
2 11
2 12
2 14
2 16
2 20
3 4
3 5
3 6
3 8
3 9
3 10
3 11
3 13
3 14
3 16
3 19
4 5
4 6
4 8
4 9
4 11
4 12
4 14
4 17
4 18
4 20
5 6
5 8
5 10
5 11
5 12
5 14
5 15
5 16
5 17
5 19
5 20
6 11
6 13
6 14
6 15
6 18
6 19
6 20
7 8
7 9
7 10
7 11
7 13
7 14
7 15
7 16
7 17
7 18
7 19
8 10
8 11
8 12
8 13
8 15
8 17
8 19
8 20
9 10
9 11
9 12
9 13
9 14
9 15
9 17
9 18
9 19
10 13
10 14
10 17
10 18
10 19
11 12
11 14
11 15
11 16
11 17
11 18
11 19
11 20
12 13
12 14
12 15
12 16
12 18
12 20
13 15
13 16
13 17
13 18
14 15
14 16
14 17
14 18
14 19
14 20
15 16
15 17
15 19
16 18
16 19
16 20
17 18
17 19
17 20
18 19
18 20
19 20
